(set-logic ALL)
(set-option :produce-models true)
(set-option :parse-transducers true)
(define-fun-rec toLower ((x String) (y String)) Bool
   (or (and (= x "") (= y ""))
       (and (not (= x "")) (not (= y ""))
           (= (char.code (str.head y))
               (ite (and (<= 65 (char.code (str.head x)))
                       (<= (char.code (str.head x)) 90))
                   (+ (char.code (str.head x)) 32)
                   (char.code (str.head x))))
           (toLower (str.tail x) (str.tail y))))
)
(declare-fun sym609 () String)
(declare-fun sym205 () String)
(declare-fun sym569 () String)
(declare-fun sym647 () String)
(declare-fun sym328 () String)
(declare-fun sym725 () String)
(declare-fun sym529 () String)
(declare-fun sym805 () String)
(declare-fun sym409 () String)
(declare-fun sym681 () String)
(declare-fun sym363 () String)
(declare-fun sym485 () String)
(declare-fun sym761 () String)
(declare-fun sym289 () String)
(declare-fun sym445 () String)
(declare-fun sym160 () String)
(declare-fun sym579 () String)
(declare-fun sym338 () String)
(declare-fun sym657 () String)
(declare-fun sym735 () String)
(declare-fun sym539 () String)
(declare-fun sym419 () String)
(declare-fun sym815 () String)
(declare-fun sym619 () String)
(declare-fun sym373 () String)
(declare-fun sym175 () String)
(declare-fun sym254 () String)
(declare-fun sym771 () String)
(declare-fun sym299 () String)
(declare-fun sym135 () String)
(declare-fun sym455 () String)
(declare-fun sym499 () String)
(declare-fun sym215 () String)
(declare-fun sym691 () String)
(declare-fun sym20 () String)
(declare-fun sym549 () String)
(declare-fun sym825 () String)
(declare-fun sym429 () String)
(declare-fun sym705 () String)
(declare-fun sym509 () String)
(declare-fun sym264 () String)
(declare-fun sym781 () String)
(declare-fun sym465 () String)
(declare-fun sym389 () String)
(declare-fun sym225 () String)
(declare-fun sym589 () String)
(declare-fun sym185 () String)
(declare-fun sym239 () String)
(declare-fun sym559 () String)
(declare-fun sym715 () String)
(declare-fun sym519 () String)
(declare-fun sym791 () String)
(declare-fun sym671 () String)
(declare-fun sym353 () String)
(declare-fun sym475 () String)
(declare-fun sym113 () String)
(declare-fun sym751 () String)
(declare-fun sym399 () String)
(declare-fun sym279 () String)
(declare-fun sym313 () String)
(declare-fun sym599 () String)
(declare-fun sym633 () String)
(declare-fun sym150 () String)
(declare-fun sym195 () String)
(define-fun Alphabet () RegLan 
	(re.* (re.union (str.to_re "A") (str.to_re "B") (str.to_re "C") (str.to_re "D") (str.to_re "E") (str.to_re "F") (str.to_re "G") (str.to_re "H") (str.to_re "I") (str.to_re "J") (str.to_re "K") (str.to_re "L") (str.to_re "M") (str.to_re "N") (str.to_re "O") (str.to_re "P") (str.to_re "Q") (str.to_re "R") (str.to_re "S") (str.to_re "T") (str.to_re "U") (str.to_re "V") (str.to_re "W") (str.to_re "X") (str.to_re "Y") (str.to_re "Z") (str.to_re "a") (str.to_re "b") (str.to_re "c") (str.to_re "d") (str.to_re "e") (str.to_re "f") (str.to_re "g") (str.to_re "h") (str.to_re "i") (str.to_re "j") (str.to_re "k") (str.to_re "l") (str.to_re "m") (str.to_re "n") (str.to_re "o") (str.to_re "p") (str.to_re "q") (str.to_re "r") (str.to_re "s") (str.to_re "t") (str.to_re "u") (str.to_re "v") (str.to_re "w") (str.to_re "x") (str.to_re "y") (str.to_re "z") ))
)
(declare-fun L101  () String)
(assert (toLower sym225  L101 ))
(declare-fun L113  () String)
(assert (toLower sym529  L113 ))
(declare-fun L2  () String)
(assert (toLower sym751  L2 ))
(declare-fun L109  () String)
(assert (toLower sym761  L109 ))
(declare-fun L6  () String)
(assert (toLower sym20  L6 ))
(declare-fun L105  () String)
(assert (toLower sym455  L105 ))
(declare-fun L24  () String)
(assert (toLower "type"  L24 ))
(declare-fun L117  () String)
(assert (toLower sym499  L117 ))
(declare-fun L56  () String)
(assert (toLower "option"  L56 ))
(declare-fun L124  () String)
(assert (toLower sym445  L124 ))
(declare-fun L120  () String)
(assert (toLower sym619  L120 ))
(declare-fun L73  () String)
(assert (toLower sym465  L73 ))
(declare-fun L61  () String)
(assert (toLower sym539  L61 ))
(declare-fun L1  () String)
(assert (toLower "database"  L1 ))
(declare-fun L93  () String)
(assert (toLower sym579  L93 ))
(declare-fun L81  () String)
(assert (toLower sym313  L81 ))
(declare-fun L77  () String)
(assert (toLower sym485  L77 ))
(declare-fun L33  () String)
(assert (toLower sym135  L33 ))
(declare-fun L65  () String)
(assert (toLower sym791  L65 ))
(declare-fun L21  () String)
(assert (toLower sym419  L21 ))
(declare-fun L5  () String)
(assert (toLower "description"  L5 ))
(declare-fun L97  () String)
(assert (toLower sym353  L97 ))
(declare-fun L53  () String)
(assert (toLower sym715  L53 ))
(declare-fun L85  () String)
(assert (toLower sym599  L85 ))
(declare-fun L41  () String)
(assert (toLower sym815  L41 ))
(declare-fun L37  () String)
(assert (toLower sym825  L37 ))
(declare-fun L69  () String)
(assert (toLower sym609  L69 ))
(declare-fun L25  () String)
(assert (toLower sym254  L25 ))
(declare-fun L9  () String)
(assert (toLower sym264  L9 ))
(declare-fun L57  () String)
(assert (toLower sym399  L57 ))
(declare-fun L13  () String)
(assert (toLower sym509  L13 ))
(declare-fun L89  () String)
(assert (toLower sym771  L89 ))
(declare-fun L45  () String)
(assert (toLower sym705  L45 ))
(declare-fun L29  () String)
(assert (toLower sym691  L29 ))
(declare-fun L17  () String)
(assert (toLower sym195  L17 ))
(declare-fun L49  () String)
(assert (toLower sym475  L49 ))
(declare-fun L111  () String)
(assert (toLower sym735  L111 ))
(declare-fun L103  () String)
(assert (toLower sym389  L103 ))
(declare-fun L0  () String)
(assert (toLower sym113  L0 ))
(declare-fun L4  () String)
(assert (toLower sym185  L4 ))
(declare-fun L22  () String)
(assert (toLower "length"  L22 ))
(declare-fun L115  () String)
(assert (toLower sym409  L115 ))
(declare-fun L107  () String)
(assert (toLower sym299  L107 ))
(declare-fun L18  () String)
(assert (toLower "table"  L18 ))
(declare-fun L38  () String)
(assert (toLower "field"  L38 ))
(declare-fun L91  () String)
(assert (toLower sym429  L91 ))
(declare-fun L122  () String)
(assert (toLower sym175  L122 ))
(declare-fun L95  () String)
(assert (toLower sym725  L95 ))
(declare-fun L51  () String)
(assert (toLower sym805  L51 ))
(declare-fun L83  () String)
(assert (toLower sym279  L83 ))
(declare-fun L71  () String)
(assert (toLower sym239  L71 ))
(declare-fun L3  () String)
(assert (toLower "name"  L3 ))
(declare-fun L99  () String)
(assert (toLower sym215  L99 ))
(declare-fun L55  () String)
(assert (toLower sym589  L55 ))
(declare-fun L11  () String)
(assert (toLower sym559  L11 ))
(declare-fun L87  () String)
(assert (toLower sym519  L87 ))
(declare-fun L43  () String)
(assert (toLower sym289  L43 ))
(declare-fun L75  () String)
(assert (toLower sym681  L75 ))
(declare-fun L31  () String)
(assert (toLower sym633  L31 ))
(declare-fun L63  () String)
(assert (toLower sym657  L63 ))
(declare-fun L7  () String)
(assert (toLower sym671  L7 ))
(declare-fun L59  () String)
(assert (toLower sym160  L59 ))
(declare-fun L15  () String)
(assert (toLower sym647  L15 ))
(declare-fun L47  () String)
(assert (toLower sym781  L47 ))
(declare-fun L126  () String)
(assert (toLower sym569  L126 ))
(declare-fun L79  () String)
(assert (toLower sym549  L79 ))
(declare-fun L35  () String)
(assert (toLower sym150  L35 ))
(declare-fun L67  () String)
(assert (toLower sym328  L67 ))
(declare-fun L23  () String)
(assert (toLower sym373  L23 ))
(declare-fun L19  () String)
(assert (toLower sym205  L19 ))
(declare-fun L39  () String)
(assert (toLower sym363  L39 ))
(declare-fun L27  () String)
(assert (toLower sym338  L27 ))

(assert (str.in_re sym195 Alphabet))
(assert (str.in_re sym150 Alphabet))
(assert (str.in_re sym633 Alphabet))
(assert (str.in_re sym599 Alphabet))
(assert (str.in_re sym313 Alphabet))
(assert (str.in_re sym279 Alphabet))
(assert (str.in_re sym399 Alphabet))
(assert (str.in_re sym751 Alphabet))
(assert (str.in_re sym113 Alphabet))
(assert (str.in_re sym475 Alphabet))
(assert (str.in_re sym353 Alphabet))
(assert (str.in_re sym671 Alphabet))
(assert (str.in_re sym791 Alphabet))
(assert (str.in_re sym519 Alphabet))
(assert (str.in_re sym715 Alphabet))
(assert (str.in_re sym559 Alphabet))
(assert (str.in_re sym239 Alphabet))
(assert (str.in_re sym185 Alphabet))
(assert (str.in_re sym589 Alphabet))
(assert (str.in_re sym225 Alphabet))
(assert (str.in_re sym389 Alphabet))
(assert (str.in_re sym465 Alphabet))
(assert (str.in_re sym781 Alphabet))
(assert (str.in_re sym264 Alphabet))
(assert (str.in_re sym509 Alphabet))
(assert (str.in_re sym705 Alphabet))
(assert (str.in_re sym429 Alphabet))
(assert (str.in_re sym825 Alphabet))
(assert (str.in_re sym549 Alphabet))
(assert (str.in_re sym20 Alphabet))
(assert (str.in_re sym691 Alphabet))
(assert (str.in_re sym215 Alphabet))
(assert (str.in_re sym499 Alphabet))
(assert (str.in_re sym455 Alphabet))
(assert (str.in_re sym135 Alphabet))
(assert (str.in_re sym299 Alphabet))
(assert (str.in_re sym771 Alphabet))
(assert (str.in_re sym254 Alphabet))
(assert (str.in_re sym175 Alphabet))
(assert (str.in_re sym373 Alphabet))
(assert (str.in_re sym619 Alphabet))
(assert (str.in_re sym815 Alphabet))
(assert (str.in_re sym419 Alphabet))
(assert (str.in_re sym539 Alphabet))
(assert (str.in_re sym735 Alphabet))
(assert (str.in_re sym657 Alphabet))
(assert (str.in_re sym338 Alphabet))
(assert (str.in_re sym579 Alphabet))
(assert (str.in_re sym160 Alphabet))
(assert (str.in_re sym445 Alphabet))
(assert (str.in_re sym289 Alphabet))
(assert (str.in_re sym761 Alphabet))
(assert (str.in_re sym485 Alphabet))
(assert (str.in_re sym363 Alphabet))
(assert (str.in_re sym681 Alphabet))
(assert (str.in_re sym409 Alphabet))
(assert (str.in_re sym805 Alphabet))
(assert (str.in_re sym529 Alphabet))
(assert (str.in_re sym725 Alphabet))
(assert (str.in_re sym328 Alphabet))
(assert (str.in_re sym647 Alphabet))
(assert (str.in_re sym569 Alphabet))
(assert (str.in_re sym205 Alphabet))
(assert (str.in_re sym609 Alphabet))
(assert (= L0 L1 ))
(assert (not (= L2 L3 )))
(assert (not (= L4 L5 )))
(assert (= L6 "html" ))
(assert (not (= L7 L3 )))
(assert (= L9 L5 ))
(assert (not (= L11 L5 )))
(assert (not (= L13 L5 )))
(assert (not (= L15 L3 )))
(assert (not (= L17 L18 )))
(assert (not (= L19 L3 )))
(assert (not (= L21 L22 )))
(assert (= L23 L24 ))
(assert (not (= L25 L3 )))
(assert (= L27 L5 ))
(assert (= L29 L24 ))
(assert (= L31 L3 ))
(assert (= L33 L3 ))
(assert (not (= L35 L3 )))
(assert (not (= L37 L38 )))
(assert (not (= L39 L5 )))
(assert (not (= L41 L5 )))
(assert (not (= L43 L5 )))
(assert (not (= L45 L3 )))
(assert (not (= L47 L22 )))
(assert (not (= L49 L22 )))
(assert (not (= L51 L3 )))
(assert (not (= L53 L5 )))
(assert (not (= L55 L56 )))
(assert (not (= L57 L5 )))
(assert (= L59 L5 ))
(assert (not (= L61 L56 )))
(assert (= L63 L5 ))
(assert (= L65 L56 ))
(assert (not (= L67 L3 )))
(assert (not (= L69 L5 )))
(assert (= L71 L3 ))
(assert (not (= L73 L24 )))
(assert (not (= L75 L5 )))
(assert (= L77 L56 ))
(assert (not (= L79 L3 )))
(assert (= L81 L3 ))
(assert (not (= L83 L3 )))
(assert (not (= L85 L3 )))
(assert (not (= L87 L24 )))
(assert (not (= L89 L24 )))
(assert (= L91 L56 ))
(assert (not (= L93 L22 )))
(assert (not (= L95 L24 )))
(assert (not (= L97 L3 )))
(assert (not (= L99 L5 )))
(assert (= L101 L18 ))
(assert (not (= L103 L3 )))
(assert (not (= L105 L5 )))
(assert (= L107 L38 ))
(assert (not (= L109 L5 )))
(assert (= L111 L22 ))
(assert (not (= L113 L22 )))
(assert (not (= L115 L24 )))
(assert (not (= L117 L3 )))
(assert (not (= L6 "sql" )))
(assert (= L120 L38 ))
(assert (not (= L122 L3 )))
(assert (not (= L124 L3 )))
(assert (not (= L126 L24 )))
(check-sat)
(get-model)
(exit)
